datasets/2-dimensional/CL_06_25_08.vbp
2
150 150 
25
43 32 30
53 74 72
45 67 4
65 30 88
23 87 54
97 69 64
91 74 90
77 66 26
73 36 94
42 82 28
56 89 72
53 47 49
77 55 54
40 77 19
38 24 28
38 73 61
28 29 84
28 44 23
82 55 67
21 27 53
23 30 54
52 82 16
99 68 9
22 60 54
26 74 77
