datasets/2-dimensional-benchmark/CL_06_25_08.txt
150 150 
0 30 43 32 
1 72 53 74 
2 4 45 67 
3 88 65 30 
4 54 23 87 
5 64 97 69 
6 90 91 74 
7 26 77 66 
8 94 73 36 
9 28 42 82 
10 72 56 89 
11 49 53 47 
12 54 77 55 
13 19 40 77 
14 28 38 24 
15 61 38 73 
16 84 28 29 
17 23 28 44 
18 67 82 55 
19 53 21 27 
20 54 23 30 
21 16 52 82 
22 9 99 68 
23 54 22 60 
24 77 26 74 
